NAME: random72
TYPE: TSP
DIMENSION: 72
EDGE_WEIGHT_TYPE: EXPLICIT
EDGE_WEIGHT_FORMAT: FULL_MATRIX
EDGE_WEIGHT_SECTION
0 635 32 635 19 42 635 30 635 635 635 635 635 64 34 635 635 635 635 25 635 635 635 38 635 635 635 635 635 51 28 635 635 635 635 635 635 21 24 635 635 635 21 635 50 635 635 635 635 635 635 45 635 635 25 635 635 635 635 22 635 635 635 15 635 635 635 635 18 16 635 635
635 0 25 27 635 635 17 635 635 27 26 21 14 635 635 635 635 40 43 635 30 635 635 21 635 31 635 635 6 635 635 635 635 27 27 37 24 635 635 635 14 635 635 635 635 635 635 635 26 16 635 635 11 22 635 635 30 635 635 31 9 635 9 635 635 635 21 635 635 635 635 10
32 25 0 635 635 36 34 5 26 21 42 38 635 635 12 635 635 635 635 10 635 635 35 23 635 36 635 635 30 635 29 635 635 635 21 31 29 14 635 635 22 635 23 635 635 635 41 635 635 37 23 22 18 31 635 635 635 20 635 11 635 635 635 44 635 635 30 635 17 635 635 25
635 27 635 0 635 635 635 635 635 635 635 22 16 635 635 10 635 635 16 635 29 635 635 635 10 635 57 635 22 635 635 20 635 16 635 635 635 635 635 635 635 635 635 4 635 635 635 635 8 25 635 635 635 635 635 635 635 635 14 635 22 635 18 635 635 635 635 635 635 635 22 28
19 635 635 635 0 58 635 635 635 635 635 635 635 45 635 635 635 635 635 34 635 41 635 28 635 29 635 635 635 33 14 635 635 635 635 635 29 22 5 635 635 635 13 635 32 635 635 635 635 635 635 635 635 635 42 635 635 635 635 25 635 635 635 33 635 635 635 635 19 6 635 635
42 635 36 635 58 0 635 31 22 37 635 635 635 635 25 635 23 635 635 28 635 635 30 635 635 635 635 41 635 635 635 635 22 635 635 36 635 635 635 41 635 635 51 635 635 635 635 635 635 635 23 22 635 635 42 635 635 29 635 38 635 52 635 41 635 53 635 27 42 57 635 635
635 17 34 635 635 635 0 635 635 635 9 635 25 635 635 635 635 24 635 635 635 635 635 16 635 18 32 635 21 635 29 635 635 21 43 635 14 635 635 635 12 635 635 635 30 635 635 635 26 6 635 635 27 39 635 635 14 635 635 35 635 635 18 635 635 635 10 635 635 635 635 27
30 635 5 635 635 31 635 0 23 21 635 635 635 635 8 635 635 635 635 6 635 635 635 27 635 635 635 635 635 635 635 635 635 635 21 30 635 15 635 635 27 635 25 635 635 635 635 635 635 635 20 19 21 635 48 635 635 18 635 11 635 635 635 41 635 635 34 635 17 635 635 635
635 635 26 635 635 22 635 23 0 16 635 635 635 635 16 635 11 635 635 25 635 635 11 635 635 635 635 28 635 635 635 635 13 635 16 14 635 635 635 25 635 635 635 635 635 17 27 635 635 635 3 4 635 30 635 635 635 9 635 635 635 635 635 54 15 41 635 16 635 635 635 635
635 27 21 635 635 37 635 21 16 0 635 635 635 635 19 635 25 635 635 26 28 635 18 39 635 635 635 635 635 635 635 635 635 635 1 11 635 635 635 635 34 635 635 635 635 635 21 635 635 635 14 15 16 15 635 635 635 8 635 31 635 635 635 635 15 635 635 635 635 635 635 19
635 26 42 635 635 635 9 635 635 635 0 635 635 635 635 635 635 16 45 635 635 30 635 21 635 16 24 635 29 635 31 635 635 21 635 635 17 635 40 635 20 20 635 635 25 635 635 635 28 12 635 635 36 635 635 635 7 635 635 635 635 635 26 635 635 635 14 635 635 635 635 635
635 21 38 22 635 635 635 635 635 635 635 0 11 635 635 16 635 635 36 635 9 635 635 635 12 635 635 635 15 635 635 20 635 635 26 32 635 635 635 635 35 635 635 25 635 635 27 45 27 635 635 635 21 12 635 36 635 635 20 635 12 635 18 635 33 635 635 635 635 635 20 15
635 14 635 16 635 635 25 635 635 635 635 11 0 635 635 15 635 635 31 635 20 635 635 635 8 635 635 635 7 635 635 24 635 23 635 635 635 635 635 635 635 635 635 19 635 635 635 635 18 21 635 635 19 19 635 635 34 635 21 635 7 635 7 635 635 635 635 635 635 635 25 13
64 635 635 635 45 635 635 635 635 635 635 635 635 0 635 635 635 16 635 635 635 5 635 635 635 635 9 635 635 13 38 635 635 635 635 635 635 635 40 635 635 13 46 635 14 635 635 635 635 635 635 635 635 635 635 635 33 635 635 635 635 635 635 635 635 635 635 635 635 50 635 635
34 635 12 635 635 25 635 8 16 19 635 635 635 635 0 635 27 635 635 8 635 635 635 35 635 635 635 635 635 635 635 635 28 635 19 26 635 21 635 635 34 635 635 635 635 635 635 635 635 635 13 12 25 635 48 635 635 14 635 18 635 635 635 42 635 57 635 635 24 44 635 635
635 635 635 10 635 635 635 635 635 635 635 16 15 635 635 0 635 635 20 635 20 635 635 635 7 635 635 635 22 635 635 11 635 25 635 635 635 635 635 635 635 635 635 11 635 635 41 635 17 635 635 635 635 28 635 47 635 635 6 635 21 635 21 635 635 635 635 635 635 635 12 27
635 635 635 635 635 23 635 635 11 25 635 635 635 635 27 635 0 635 635 635 635 635 9 635 635 635 635 19 635 635 635 635 2 635 635 17 635 635 635 18 635 635 635 635 635 14 28 25 635 635 14 15 635 635 635 635 635 19 635 635 635 31 635 635 16 32 635 5 635 635 635 635
635 40 635 635 635 635 24 635 635 635 16 635 635 16 635 635 635 0 60 635 635 14 635 27 635 14 10 635 635 14 29 635 635 36 635 635 21 635 34 635 30 4 37 635 10 635 635 635 44 28 635 635 635 635 635 635 19 635 635 635 635 635 635 635 635 635 21 635 635 635 635 635
635 43 635 16 635 635 635 635 635 635 45 36 31 635 635 20 635 60 0 635 40 635 635 635 25 635 64 635 635 635 635 24 635 24 635 635 635 635 635 635 635 64 635 12 635 635 635 635 19 38 635 635 635 635 635 635 41 635 18 635 635 635 34 635 635 635 635 635 635 635 26 635
25 635 10 635 34 28 635 6 25 26 635 635 635 635 8 635 635 635 635 0 635 635 635 30 635 635 635 635 635 635 635 635 36 635 635 635 635 14 36 635 31 635 24 635 635 635 635 635 635 635 22 21 635 635 42 635 635 22 635 11 635 635 635 35 635 635 635 635 16 36 635 635
635 30 635 29 635 635 635 635 635 28 635 9 20 635 635 20 635 635 40 635 0 635 38 635 19 635 635 46 24 635 635 19 635 635 28 30 635 635 635 40 635 635 635 635 635 34 21 39 635 635 635 635 28 14 635 28 635 635 22 635 21 51 635 635 31 53 635 635 635 635 17 22
635 635 635 635 41 635 635 635 635 635 30 635 635 5 635 635 635 14 635 635 635 0 635 635 635 24 10 635 635 8 34 635 635 49 635 635 635 635 35 635 635 10 42 635 10 635 635 635 635 635 635 635 635 635 635 635 32 635 635 635 635 635 635 635 635 635 635 635 635 46 635 635
635 635 35 635 635 30 635 635 11 18 635 635 635 635 635 635 9 635 635 635 38 635 0 635 635 635 635 17 635 635 635 635 11 635 19 9 635 635 635 14 635 635 635 635 635 6 19 20 635 635 13 15 635 29 635 32 635 15 635 635 635 635 635 635 7 31 635 10 635 635 635 635
38 21 23 635 28 635 16 27 635 39 21 635 635 635 35 635 635 27 635 30 635 635 635 0 635 13 635 635 635 32 15 635 635 635 38 635 6 20 25 635 8 635 17 635 28 635 635 635 635 21 635 635 25 41 635 635 635 41 635 21 635 635 635 635 635 635 8 635 21 34 635 29
635 635 635 10 635 635 635 635 635 635 635 12 8 635 635 7 635 635 25 635 19 635 635 635 0 635 635 635 16 635 635 16 635 635 635 635 635 635 635 635 635 635 635 14 635 635 635 635 16 27 635 635 635 23 635 47 635 635 13 635 15 635 14 635 635 635 635 635 635 635 17 20
635 31 36 635 29 635 18 635 635 635 16 635 635 635 635 635 635 14 635 635 635 24 635 13 635 0 24 635 635 19 16 635 635 37 635 635 8 30 24 635 18 16 23 635 15 635 635 635 635 23 635 635 635 635 635 635 23 635 635 635 635 635 635 635 635 635 10 635 635 35 635 635
635 635 635 57 635 635 32 635 635 635 24 635 635 9 635 635 635 10 64 635 635 10 635 635 635 24 0 635 635 15 37 635 635 41 635 635 635 635 41 635 635 8 635 58 14 635 635 635 49 36 635 635 635 635 635 635 24 635 71 635 635 635 50 635 635 635 31 635 635 52 635 635
635 635 635 635 635 41 635 635 28 635 635 635 635 635 635 635 19 635 635 635 46 635 17 635 635 635 635 0 635 635 635 635 19 635 635 635 635 635 635 6 635 635 635 635 635 15 24 9 635 635 635 635 635 635 635 28 635 635 635 635 635 12 635 635 20 14 635 14 635 635 635 635
635 6 30 22 635 635 21 635 635 635 29 15 7 635 635 22 635 635 635 635 24 635 635 635 16 635 635 635 0 635 635 635 635 25 27 635 635 635 635 635 20 635 635 26 635 635 635 635 22 18 635 635 13 19 635 635 635 635 635 635 3 635 5 635 635 635 635 635 635 635 635 8
51 635 635 635 33 635 635 635 635 635 635 635 635 13 635 635 635 14 635 635 635 8 635 32 635 19 15 635 635 0 26 635 635 635 635 635 27 635 27 635 635 10 34 635 5 635 635 635 635 635 635 635 635 635 635 635 635 635 635 635 635 635 635 65 635 635 635 635 635 38 635 635
28 635 29 635 14 635 29 635 635 635 31 635 635 38 635 635 635 29 635 635 635 34 635 15 635 16 37 635 635 26 0 635 635 635 635 635 15 18 10 635 23 29 8 635 24 635 635 635 635 635 635 635 635 635 635 635 38 635 635 21 635 635 635 635 635 635 19 635 16 20 635 635
635 635 635 20 635 635 635 635 635 635 635 20 24 635 635 11 635 635 24 635 19 635 635 635 16 635 635 635 635 635 635 0 635 36 635 635 635 635 635 635 635 635 635 20 635 635 635 635 27 635 635 635 635 31 635 41 635 635 6 635 635 635 635 635 635 635 635 635 635 635 2 635
635 635 635 635 635 22 635 635 13 635 635 635 635 635 28 635 2 635 635 36 635 635 11 635 635 635 635 19 635 635 635 635 0 635 635 19 635 635 635 19 635 635 635 635 635 16 635 26 635 635 16 17 635 635 635 41 635 21 635 635 635 31 635 635 18 32 635 5 635 635 635 635
635 27 635 16 635 635 21 635 635 635 21 635 23 635 635 25 635 36 24 635 635 49 635 635 635 37 41 635 25 635 635 36 635 0 635 635 635 635 635 635 635 40 635 17 45 635 635 635 9 16 635 635 635 635 635 635 18 635 30 635 635 635 20 635 635 635 31 635 635 635 635 635
635 27 21 635 635 635 43 21 16 1 635 26 635 635 19 635 635 635 635 635 28 635 19 38 635 635 635 635 27 635 635 635 635 635 0 11 635 635 635 635 34 635 635 635 635 20 21 635 635 635 14 15 16 15 635 37 635 8 635 31 25 635 635 635 15 635 43 635 635 635 635 19
635 37 31 635 635 36 635 30 14 11 635 32 635 635 26 635 17 635 635 635 30 635 9 635 635 635 635 635 635 635 635 635 19 635 11 0 635 635 635 18 45 635 635 635 635 8 14 22 635 635 14 16 27 20 635 29 635 12 635 635 635 635 635 635 3 635 635 19 635 635 47 29
635 24 29 635 29 635 14 635 635 635 17 635 635 635 635 635 635 21 635 635 635 635 635 6 635 8 635 635 635 27 15 635 635 635 635 635 0 24 25 635 11 23 20 635 22 635 635 635 635 20 635 635 30 635 635 635 24 635 635 26 635 635 635 635 635 635 4 635 25 635 635 635
21 635 14 635 22 635 635 15 635 635 635 635 635 635 21 635 635 635 635 14 635 635 635 20 635 30 635 635 635 635 18 635 635 635 635 635 24 0 23 635 24 635 10 635 41 635 635 635 635 635 635 635 29 635 635 635 635 635 635 4 635 635 635 35 635 635 27 635 3 25 635 635
24 635 635 635 5 635 635 635 635 635 40 635 635 40 635 635 635 34 635 36 635 35 635 25 635 24 41 635 635 27 10 635 635 635 635 635 25 23 0 635 635 33 13 635 27 635 635 635 635 635 635 635 635 635 48 635 635 635 635 27 635 635 635 38 635 635 29 635 20 11 635 635
635 635 635 635 635 41 635 635 25 635 635 635 635 635 635 635 18 635 635 635 40 635 14 635 635 635 635 6 635 635 635 635 19 635 635 18 635 635 635 0 635 635 635 635 635 10 18 7 635 635 635 635 635 635 635 24 635 635 635 635 635 16 635 635 15 18 635 14 635 635 635 635
635 14 22 635 635 635 12 27 635 34 20 35 635 635 34 635 635 30 635 31 635 635 635 8 635 18 635 635 20 635 23 635 635 635 34 45 11 24 635 635 0 635 24 635 635 635 635 635 34 16 635 635 19 34 635 635 26 37 635 24 23 635 20 635 635 635 9 635 26 635 635 22
635 635 635 635 635 635 635 635 635 635 20 635 635 13 635 635 635 4 64 635 635 10 635 635 635 16 8 635 635 10 29 635 635 40 635 635 23 635 33 635 635 0 635 635 7 635 635 635 635 32 635 635 635 635 635 635 23 635 635 635 635 635 635 635 635 635 24 635 635 44 635 635
21 635 23 635 13 51 635 25 635 635 635 635 635 46 635 635 635 37 635 24 635 42 635 17 635 23 635 635 635 34 8 635 635 635 635 635 20 10 13 635 24 635 0 635 32 635 635 635 635 635 635 635 635 635 46 635 635 635 635 14 635 635 635 36 635 635 24 635 9 18 635 635
635 635 635 4 635 635 635 635 635 635 635 25 19 635 635 11 635 635 12 635 635 635 635 635 14 635 58 635 26 635 635 20 635 17 635 635 635 635 635 635 635 635 635 0 635 635 635 635 9 28 635 635 635 635 635 635 34 635 14 635 635 635 22 635 635 635 635 635 635 635 22 635
50 635 635 635 32 635 30 635 635 635 25 635 635 14 635 635 635 10 635 635 635 10 635 28 635 15 14 635 635 5 24 635 635 45 635 635 22 41 27 635 635 7 32 635 0 635 635 635 635 35 635 635 635 635 635 635 28 635 635 635 635 635 635 635 635 635 24 635 635 38 635 635
635 635 635 635 635 635 635 635 17 635 635 635 635 635 635 635 14 635 635 635 34 635 6 635 635 635 635 15 635 635 635 635 16 635 20 8 635 635 635 10 635 635 635 635 635 0 14 15 635 635 635 635 635 27 635 26 635 19 635 635 635 26 635 635 5 28 635 13 635 635 51 635
635 635 41 635 635 635 635 635 27 21 635 27 635 635 635 41 28 635 635 635 21 635 19 635 635 635 635 24 635 635 635 635 635 635 21 14 635 635 635 18 635 635 635 635 635 14 0 18 635 635 635 635 32 18 635 17 635 25 635 635 34 31 635 635 13 33 635 27 635 635 38 31
635 635 635 635 635 635 635 635 635 635 635 45 635 635 635 635 25 635 635 635 39 635 20 635 635 635 635 9 635 635 635 635 26 635 635 22 635 635 635 7 635 635 635 635 635 15 18 0 635 635 635 635 635 36 635 18 635 635 635 635 635 13 635 635 19 15 635 21 635 635 54 635
635 26 635 8 635 635 26 635 635 635 28 27 18 635 635 17 635 44 19 635 635 635 635 635 16 635 49 635 22 635 635 27 635 9 635 635 635 635 635 635 34 635 635 9 635 635 635 635 0 20 635 635 635 635 635 635 25 635 22 635 24 635 17 635 635 635 635 635 635 635 29 30
635 16 37 25 635 635 6 635 635 635 12 635 21 635 635 635 635 28 38 635 635 635 635 21 27 23 36 635 18 635 635 635 635 16 635 635 20 635 635 635 16 32 635 28 35 635 635 635 20 0 635 635 26 635 635 635 14 635 38 635 21 635 14 635 635 635 16 635 635 635 635 25
635 635 23 635 635 23 635 20 3 14 635 635 635 635 13 635 14 635 635 22 635 635 13 635 635 635 635 635 635 635 635 635 16 635 14 14 635 635 635 635 635 635 635 635 635 635 635 635 635 635 0 1 635 635 635 635 635 7 635 635 635 635 635 635 16 44 635 635 635 635 635 635
45 635 22 635 635 22 635 19 4 15 635 635 635 635 12 635 15 635 635 21 635 635 15 635 635 635 635 635 635 635 635 635 17 635 15 16 635 635 635 635 635 635 635 635 635 635 635 635 635 635 1 0 635 635 56 635 635 7 635 30 635 635 635 51 635 45 635 20 635 635 635 635
635 11 18 635 635 635 27 21 635 16 36 21 19 635 25 635 635 635 635 635 28 635 635 25 635 635 635 635 13 635 635 635 635 635 16 27 30 29 635 635 19 635 635 635 635 635 32 635 635 26 635 635 0 16 635 635 635 22 635 26 13 635 18 635 30 635 28 635 635 635 41 7
635 22 31 635 635 635 39 635 30 15 635 12 19 635 635 28 635 635 635 635 14 635 29 41 23 635 635 635 19 635 635 31 635 635 15 20 635 635 635 635 34 635 635 635 635 27 18 36 635 635 635 635 16 0 635 32 635 23 635 635 16 49 23 635 22 635 635 635 635 635 30 13
25 635 635 635 42 42 635 48 635 635 635 635 635 635 48 635 635 635 635 42 635 635 635 635 635 635 635 635 635 635 635 635 635 635 635 635 635 635 48 635 635 635 46 635 635 635 635 635 635 635 635 56 635 635 0 635 635 635 635 635 635 635 635 10 635 635 635 635 42 37 635 635
635 635 635 635 635 635 635 635 635 635 635 36 635 635 635 47 635 635 635 635 28 635 32 635 47 635 635 28 635 635 635 41 41 635 37 29 635 635 635 24 635 635 635 635 635 26 17 18 635 635 635 635 635 32 635 0 635 635 635 635 635 27 635 635 27 28 635 37 635 635 39 45
635 30 635 635 635 635 14 635 635 635 7 635 34 33 635 635 635 19 41 635 635 32 635 635 635 23 24 635 635 635 38 635 635 18 635 635 24 635 635 635 26 23 635 34 28 635 635 635 25 14 635 635 635 635 635 635 0 635 635 635 635 635 28 635 635 635 20 635 635 635 635 635
635 635 20 635 635 29 635 18 9 8 635 635 635 635 14 635 19 635 635 22 635 635 15 41 635 635 635 635 635 635 635 635 21 635 8 12 635 635 635 635 37 635 635 635 635 19 25 635 635 635 7 7 22 23 635 635 635 0 635 29 635 635 635 55 15 635 635 23 635 635 635 635
635 635 635 14 635 635 635 635 635 635 635 20 21 635 635 6 635 635 18 635 22 635 635 635 13 635 71 635 635 635 635 6 635 30 635 635 635 635 635 635 635 635 635 14 635 635 635 635 22 38 635 635 635 635 635 635 635 635 0 635 635 635 635 635 635 635 635 635 635 635 8 635
22 31 11 635 25 38 35 11 635 31 635 635 635 635 18 635 635 635 635 11 635 635 635 21 635 635 635 635 635 635 21 635 635 635 31 635 26 4 27 635 24 635 14 635 635 635 635 635 635 635 635 30 26 635 635 635 635 29 635 0 635 635 635 36 635 635 28 635 7 28 635 635
635 9 635 22 635 635 635 635 635 635 635 12 7 635 635 21 635 635 635 635 21 635 635 635 15 635 635 635 3 635 635 635 635 635 25 635 635 635 635 635 23 635 635 635 635 635 34 635 24 21 635 635 13 16 635 635 635 635 635 635 0 635 8 635 635 635 635 635 635 635 30 6
635 635 635 635 635 52 635 635 635 635 635 635 635 635 635 635 31 635 635 635 51 635 635 635 635 635 635 12 635 635 635 635 31 635 635 635 635 635 635 16 635 635 635 635 635 26 31 13 635 635 635 635 635 49 635 27 635 635 635 635 635 0 635 635 31 2 635 26 635 635 65 635
635 9 635 18 635 635 18 635 635 635 26 18 7 635 635 21 635 635 34 635 635 635 635 635 14 635 50 635 5 635 635 635 635 20 635 635 635 635 635 635 20 635 635 22 635 635 635 635 17 14 635 635 18 23 635 635 28 635 635 635 8 635 0 635 635 635 26 635 635 635 635 13
15 635 44 635 33 41 635 41 54 635 635 635 635 635 42 635 635 635 635 35 635 635 635 635 635 635 635 635 635 65 635 635 635 635 635 635 635 35 38 635 635 635 36 635 635 635 635 635 635 635 635 51 635 635 10 635 635 55 635 36 635 635 635 0 635 635 635 635 33 28 635 635
635 635 635 635 635 635 635 635 15 15 635 33 635 635 635 635 16 635 635 635 31 635 7 635 635 635 635 20 635 635 635 635 18 635 15 3 635 635 635 15 635 635 635 635 635 5 13 19 635 635 16 635 30 22 635 27 635 15 635 635 635 31 635 635 0 635 635 17 635 635 635 635
635 635 635 635 635 53 635 635 41 635 635 635 635 635 57 635 32 635 635 635 53 635 31 635 635 635 635 14 635 635 635 635 32 635 635 635 635 635 635 18 635 635 635 635 635 28 33 15 635 635 44 45 635 635 635 28 635 635 635 635 635 2 635 635 635 0 635 27 635 635 635 635
635 21 30 635 635 635 10 34 635 635 14 635 635 635 635 635 635 21 635 635 635 635 635 8 635 10 31 635 635 635 19 635 635 31 43 635 4 27 29 635 9 24 24 635 24 635 635 635 635 16 635 635 28 635 635 635 20 635 635 28 635 635 26 635 635 635 0 635 635 635 635 30
635 635 635 635 635 27 635 635 16 635 635 635 635 635 635 635 5 635 635 635 635 635 10 635 635 635 635 14 635 635 635 635 5 635 635 19 635 635 635 14 635 635 635 635 635 13 27 21 635 635 635 20 635 635 635 37 635 23 635 635 635 26 635 635 17 27 635 0 635 635 635 635
18 635 17 635 19 42 635 17 635 635 635 635 635 635 24 635 635 635 635 16 635 635 635 21 635 635 635 635 635 635 16 635 635 635 635 635 25 3 20 635 26 635 9 635 635 635 635 635 635 635 635 635 635 635 42 635 635 635 635 7 635 635 635 33 635 635 635 635 0 22 635 635
16 635 635 635 6 57 635 635 635 635 635 635 635 50 44 635 635 635 635 36 635 46 635 34 635 35 52 635 635 38 20 635 635 635 635 635 635 25 11 635 635 44 18 635 38 635 635 635 635 635 635 635 635 635 37 635 635 635 635 28 635 635 635 28 635 635 635 635 22 0 635 635
635 635 635 22 635 635 635 635 635 635 635 20 25 635 635 12 635 635 26 635 17 635 635 635 17 635 635 635 635 635 635 2 635 635 635 47 635 635 635 635 635 635 635 22 635 51 38 54 29 635 635 635 41 30 635 39 635 635 8 635 30 65 635 635 635 635 635 635 635 635 0 34
635 10 25 28 635 635 27 635 635 19 635 15 13 635 635 27 635 635 635 635 22 635 635 29 20 635 635 635 8 635 635 635 635 635 19 29 635 635 635 635 22 635 635 635 635 635 31 635 30 25 635 635 7 13 635 45 635 635 635 635 6 635 13 635 635 635 30 635 635 635 34 0
EOF
